
Gurobi 9.5.2 (mac64[x86]) logging started Tue Mar 21 18:05:48 2023

Set parameter LogFile to value "logFiles/N-1L-45D/N-1L-6U-13F-18V-45D-a-basic.log"
Gurobi Optimizer version 9.5.2 build v9.5.2rc0 (mac64[x86])
Thread count: 4 physical cores, 8 logical processors, using up to 8 threads
Optimize a model with 10254 rows, 14126 columns and 92463 nonzeros
Model fingerprint: 0x37848da2
Variable types: 322 continuous, 13804 integer (13804 binary)
Coefficient statistics:
  Matrix range     [1e+00, 2e+05]
  Objective range  [4e+01, 2e+07]
  Bounds range     [1e+00, 1e+00]
  RHS range        [1e+00, 8e+05]
Presolve removed 9113 rows and 5585 columns
Presolve time: 0.14s
Presolved: 1141 rows, 8541 columns, 55998 nonzeros
Variable types: 322 continuous, 8219 integer (8219 binary)

Root relaxation: objective 4.167782e+08, 2719 iterations, 0.10 seconds (0.12 work units)

    Nodes    |    Current Node    |     Objective Bounds      |     Work
 Expl Unexpl |  Obj  Depth IntInf | Incumbent    BestBd   Gap | It/Node Time

     0     0 4.1678e+08    0   13          - 4.1678e+08      -     -    0s
     0     0 4.1676e+08    0   13          - 4.1676e+08      -     -    0s
     0     0 4.1676e+08    0   13          - 4.1676e+08      -     -    0s
     0     0 4.1676e+08    0   10          - 4.1676e+08      -     -    0s
     0     0 4.1676e+08    0    9          - 4.1676e+08      -     -    0s
     0     0 4.1676e+08    0    7          - 4.1676e+08      -     -    0s
     0     0 4.1676e+08    0    9          - 4.1676e+08      -     -    0s
     0     0 4.1676e+08    0    9          - 4.1676e+08      -     -    1s
H    0     0                    3.560480e+08 4.1676e+08  17.1%     -    1s
     0     0 4.1676e+08    0    9 3.5605e+08 4.1676e+08  17.1%     -    1s
H    0     0                    4.051691e+08 4.1672e+08  2.85%     -    1s
     0     2 4.1672e+08    0    9 4.0517e+08 4.1672e+08  2.85%     -    2s
H   31    36                    4.059498e+08 4.1672e+08  2.65%  13.3    3s
H   32    36                    4.061913e+08 4.1672e+08  2.59%  12.9    3s
H   34    36                    4.064926e+08 4.1672e+08  2.52%  12.6    3s
H  100   105                    4.065115e+08 4.1672e+08  2.51%   5.8    4s
H  101   105                    4.067346e+08 4.1672e+08  2.45%   5.8    4s
   561   778 4.1539e+08  113   12 4.0673e+08 4.1672e+08  2.45%   5.6    5s
H 1163  1089                    4.067954e+08 4.1672e+08  2.44%   6.8    6s
H 1395  1229                    4.067954e+08 4.1672e+08  2.44%   8.7    8s
  1428  1256 4.1668e+08   20   14 4.0680e+08 4.1668e+08  2.43%  11.2   10s
  4871  3474 4.1628e+08  218   27 4.0680e+08 4.1668e+08  2.43%  10.2   15s
H 5150  3548                    4.067954e+08 4.1668e+08  2.43%  10.0   15s
 10975  8936 4.1667e+08   76   11 4.0680e+08 4.1668e+08  2.43%   8.4   21s
 17263 14113 4.1421e+08  375   37 4.0680e+08 4.1668e+08  2.43%   7.3   25s
H18218 12970                    4.108339e+08 4.1668e+08  1.42%   7.3   26s
 21226 15472 4.1291e+08  314    9 4.1083e+08 4.1668e+08  1.42%   7.4   31s
H21227 14699                    4.110456e+08 4.1668e+08  1.37%   7.4   32s
H21229 13965                    4.110811e+08 4.1668e+08  1.36%   7.4   32s
 21697 14280 4.1668e+08   83   18 4.1108e+08 4.1668e+08  1.36%   8.0   35s
H21700 13580                    4.112325e+08 4.1668e+08  1.32%   8.0   35s

Explored 21814 nodes (179816 simplex iterations) in 38.48 seconds (54.18 work units)
Thread count was 8 (of 8 available processors)

Solution count 10: 4.11233e+08 4.11081e+08 4.11046e+08 ... 4.06493e+08

Solve interrupted
Best objective 4.112325171407e+08, best bound 4.166785954056e+08, gap 1.3243%

Gurobi 9.5.2 (mac64[x86]) logging started Tue Mar 21 18:38:03 2023

Set parameter LogFile to value "logFiles/N-1L-45D/N-1L-6U-13F-18V-45D-a-basic.log"
Gurobi Optimizer version 9.5.2 build v9.5.2rc0 (mac64[x86])
Thread count: 4 physical cores, 8 logical processors, using up to 8 threads
Optimize a model with 10254 rows, 14126 columns and 92719 nonzeros
Model fingerprint: 0xdfad5e26
Variable types: 322 continuous, 13804 integer (13804 binary)
Coefficient statistics:
  Matrix range     [1e+00, 2e+05]
  Objective range  [4e+01, 2e+07]
  Bounds range     [1e+00, 1e+00]
  RHS range        [1e+00, 8e+05]
Presolve removed 8840 rows and 6098 columns
Presolve time: 0.05s

Explored 0 nodes (0 simplex iterations) in 0.07 seconds (0.04 work units)
Thread count was 1 (of 8 available processors)

Solution count 0

Model is infeasible or unbounded
Best objective -, best bound -, gap -

Computing Irreducible Inconsistent Subsystem (IIS)...

           Constraints          |            Bounds           |  Runtime
      Min       Max     Guess   |   Min       Max     Guess   |
--------------------------------------------------------------------------
        0      2636         -         0       322         -           0s
       50        50         -         1         1         -           1s

IIS computed: 50 constraints, 1 bounds
IIS runtime: 1.49 seconds (0.29 work units)

Gurobi 9.5.2 (mac64[x86]) logging started Tue Mar 21 18:42:14 2023

Set parameter LogFile to value "logFiles/N-1L-45D/N-1L-6U-13F-18V-45D-a-basic.log"
Gurobi Optimizer version 9.5.2 build v9.5.2rc0 (mac64[x86])
Thread count: 4 physical cores, 8 logical processors, using up to 8 threads
Optimize a model with 10266 rows, 14126 columns and 77136 nonzeros
Model fingerprint: 0xe282d2bd
Variable types: 322 continuous, 13804 integer (13804 binary)
Coefficient statistics:
  Matrix range     [1e+00, 2e+05]
  Objective range  [4e+01, 2e+07]
  Bounds range     [1e+00, 1e+00]
  RHS range        [1e+00, 8e+05]
Presolve removed 9655 rows and 6112 columns
Presolve time: 0.21s
Presolved: 611 rows, 8014 columns, 44535 nonzeros
Variable types: 63 continuous, 7951 integer (7951 binary)

Root relaxation: infeasible, 546 iterations, 0.03 seconds (0.01 work units)

    Nodes    |    Current Node    |     Objective Bounds      |     Work
 Expl Unexpl |  Obj  Depth IntInf | Incumbent    BestBd   Gap | It/Node Time

     0     0 infeasible    0               - infeasible      -     -    0s

Explored 1 nodes (546 simplex iterations) in 0.31 seconds (0.19 work units)
Thread count was 8 (of 8 available processors)

Solution count 0
No other solutions better than -1e+100

Model is infeasible or unbounded
Best objective -, best bound -, gap -

Computing Irreducible Inconsistent Subsystem (IIS)...

           Constraints          |            Bounds           |  Runtime
      Min       Max     Guess   |   Min       Max     Guess   |
--------------------------------------------------------------------------
        0      2637         -         0       322         -           0s
       13       293         -         0        25         -           5s
       66       226       120         0        25         -          10s
      102       167       120         0        25         -          15s
      131       131         -         0         5         -          20s
      131       131         -         0         0         -          20s

IIS computed: 131 constraints, 0 bounds
IIS runtime: 20.39 seconds (7.63 work units)

Gurobi 9.5.2 (mac64[x86]) logging started Tue Mar 21 18:55:38 2023

Set parameter LogFile to value "logFiles/N-1L-45D/N-1L-6U-13F-18V-45D-a-basic.log"
Gurobi Optimizer version 9.5.2 build v9.5.2rc0 (mac64[x86])
Thread count: 4 physical cores, 8 logical processors, using up to 8 threads
Optimize a model with 10266 rows, 14126 columns and 77136 nonzeros
Model fingerprint: 0x0a9aab49
Variable types: 322 continuous, 13804 integer (13804 binary)
Coefficient statistics:
  Matrix range     [1e+00, 2e+05]
  Objective range  [4e+01, 2e+07]
  Bounds range     [1e+00, 1e+00]
  RHS range        [1e+00, 8e+05]
Presolve removed 9651 rows and 6109 columns
Presolve time: 0.17s
Presolved: 615 rows, 8017 columns, 44539 nonzeros
Variable types: 63 continuous, 7954 integer (7954 binary)

Root relaxation: infeasible, 319 iterations, 0.02 seconds (0.01 work units)

    Nodes    |    Current Node    |     Objective Bounds      |     Work
 Expl Unexpl |  Obj  Depth IntInf | Incumbent    BestBd   Gap | It/Node Time

     0     0 infeasible    0               - infeasible      -     -    0s

Explored 1 nodes (319 simplex iterations) in 0.25 seconds (0.16 work units)
Thread count was 8 (of 8 available processors)

Solution count 0
No other solutions better than -1e+100

Model is infeasible or unbounded
Best objective -, best bound -, gap -

Computing Irreducible Inconsistent Subsystem (IIS)...

           Constraints          |            Bounds           |  Runtime
      Min       Max     Guess   |   Min       Max     Guess   |
--------------------------------------------------------------------------
        0      2633         -         0       322         -           0s
       20       325         -         0        29         -           5s
       61       263       130         0        29         -          10s
       94       200       130         0        29         -          15s
      119       142       130         0        29         -          20s
      127       127         -         0         0         -          24s

IIS computed: 127 constraints, 0 bounds
IIS runtime: 23.90 seconds (9.63 work units)

Gurobi 9.5.2 (mac64[x86]) logging started Tue Mar 21 18:57:46 2023

Set parameter LogFile to value "logFiles/N-1L-45D/N-1L-6U-13F-18V-45D-a-basic.log"
Gurobi Optimizer version 9.5.2 build v9.5.2rc0 (mac64[x86])
Thread count: 4 physical cores, 8 logical processors, using up to 8 threads
Optimize a model with 10254 rows, 14126 columns and 92719 nonzeros
Model fingerprint: 0x6fc2c493
Variable types: 322 continuous, 13804 integer (13804 binary)
Coefficient statistics:
  Matrix range     [1e+00, 2e+05]
  Objective range  [4e+01, 2e+07]
  Bounds range     [1e+00, 1e+00]
  RHS range        [1e+00, 8e+05]
Presolve removed 9086 rows and 5585 columns
Presolve time: 0.19s
Presolved: 1168 rows, 8541 columns, 60351 nonzeros
Variable types: 322 continuous, 8219 integer (8219 binary)

Root relaxation: objective 4.167782e+08, 2643 iterations, 0.13 seconds (0.12 work units)

    Nodes    |    Current Node    |     Objective Bounds      |     Work
 Expl Unexpl |  Obj  Depth IntInf | Incumbent    BestBd   Gap | It/Node Time

     0     0 4.1678e+08    0   14          - 4.1678e+08      -     -    0s
H    0     0                    3.898474e+08 4.1678e+08  6.91%     -    0s
H    0     0                    3.937686e+08 4.1678e+08  5.84%     -    1s
     0     0 4.1676e+08    0   13 3.9377e+08 4.1676e+08  5.84%     -    1s
H    0     0                    3.949632e+08 4.1676e+08  5.52%     -    1s
     0     0 4.1676e+08    0   13 3.9496e+08 4.1676e+08  5.52%     -    1s
     0     0 4.1676e+08    0   11 3.9496e+08 4.1676e+08  5.52%     -    1s
     0     0 4.1676e+08    0    7 3.9496e+08 4.1676e+08  5.52%     -    1s
     0     0 4.1676e+08    0    8 3.9496e+08 4.1676e+08  5.52%     -    2s
     0     0 4.1676e+08    0   10 3.9496e+08 4.1676e+08  5.52%     -    2s
     0     0 4.1676e+08    0    8 3.9496e+08 4.1676e+08  5.52%     -    2s
     0     0 4.1676e+08    0    8 3.9496e+08 4.1676e+08  5.52%     -    2s
     0     2 4.1672e+08    0    8 3.9496e+08 4.1672e+08  5.51%     -    2s
H   30    35                    4.044034e+08 4.1672e+08  3.04%   5.3    3s
H  434   446                    4.051107e+08 4.1672e+08  2.86%   6.9    6s
H  456   446                    4.052239e+08 4.1672e+08  2.84%   8.4    6s
H 1399  1599                    4.056814e+08 4.1672e+08  2.72%   8.2    8s
H 2216  2002                    4.058967e+08 4.1672e+08  2.67%   8.3    8s
  2217  2003 4.1565e+08   69    8 4.0590e+08 4.1672e+08  2.67%   8.3   10s
H 2218  1903                    4.060115e+08 4.1672e+08  2.64%   8.3   11s
H 2218  1808                    4.060992e+08 4.1672e+08  2.61%   8.3   11s
H 2220  1719                    4.066117e+08 4.1669e+08  2.48%   8.3   13s
H 2223  1637                    4.066184e+08 4.1669e+08  2.48%  10.2   14s
  2340  1717 4.1669e+08   29   11 4.0662e+08 4.1669e+08  2.48%  10.6   15s
H 2341  1635                    4.067463e+08 4.1669e+08  2.44%  10.6   15s
  4025  2932 4.1654e+08  144   14 4.0675e+08 4.1669e+08  2.44%  12.2   20s
H 6713  3904                    4.067463e+08 4.1669e+08  2.44%  10.7   24s
H 6763  3904                    4.067463e+08 4.1669e+08  2.44%  10.6   24s
  6765  4135 4.1599e+08  225   38 4.0675e+08 4.1669e+08  2.44%  10.6   25s
H 9282  5885                    4.111106e+08 4.1669e+08  1.36%  10.9   28s
 10138  7092 4.1618e+08   53   10 4.1111e+08 4.1669e+08  1.36%  10.8   30s
 14414 10620 4.1663e+08  114   17 4.1111e+08 4.1669e+08  1.36%   9.7   35s
 21473 16428 4.1634e+08  157   29 4.1111e+08 4.1669e+08  1.36%   8.5   40s
H22098 15608                    4.111997e+08 4.1669e+08  1.33%   8.5   45s
H22100 14828                    4.113510e+08 4.1669e+08  1.30%   8.5   46s
H22102 14091                    4.113545e+08 4.1669e+08  1.30%   8.6   48s
 22332 14246 4.1669e+08   48   10 4.1135e+08 4.1669e+08  1.30%   8.8   50s
 22523 14377 4.1669e+08   71   20 4.1135e+08 4.1669e+08  1.30%   9.0   55s
 24185 15284 4.1511e+08  267   11 4.1135e+08 4.1669e+08  1.30%   9.1   60s

Explored 24283 nodes (224034 simplex iterations) in 60.01 seconds (61.18 work units)
Thread count was 8 (of 8 available processors)

Solution count 10: 4.11355e+08 4.11351e+08 4.112e+08 ... 4.06099e+08

Time limit reached
Best objective 4.113545382900e+08, best bound 4.166888565448e+08, gap 1.2968%

Gurobi 9.5.2 (mac64[x86]) logging started Tue Mar 21 19:14:06 2023

Set parameter LogFile to value "logFiles/N-1L-45D/N-1L-6U-13F-18V-45D-a-basic.log"
Gurobi Optimizer version 9.5.2 build v9.5.2rc0 (mac64[x86])
Thread count: 4 physical cores, 8 logical processors, using up to 8 threads
Optimize a model with 10254 rows, 14126 columns and 93487 nonzeros
Model fingerprint: 0x21b7fd14
Variable types: 322 continuous, 13804 integer (13804 binary)
Coefficient statistics:
  Matrix range     [1e+00, 2e+05]
  Objective range  [4e+01, 2e+07]
  Bounds range     [1e+00, 1e+00]
  RHS range        [1e+00, 8e+05]
Presolve removed 8945 rows and 5585 columns
Presolve time: 0.18s
Presolved: 1309 rows, 8541 columns, 61221 nonzeros
Variable types: 322 continuous, 8219 integer (8219 binary)

Root relaxation: objective 4.167782e+08, 2664 iterations, 0.15 seconds (0.14 work units)

    Nodes    |    Current Node    |     Objective Bounds      |     Work
 Expl Unexpl |  Obj  Depth IntInf | Incumbent    BestBd   Gap | It/Node Time

     0     0 4.1678e+08    0   12          - 4.1678e+08      -     -    0s
     0     0 4.1676e+08    0   16          - 4.1676e+08      -     -    0s
     0     0 4.1676e+08    0   17          - 4.1676e+08      -     -    0s
     0     0 4.1676e+08    0   17          - 4.1676e+08      -     -    0s
H    0     0                    3.498081e+08 4.1676e+08  19.1%     -    0s
     0     0 4.1676e+08    0   16 3.4981e+08 4.1676e+08  19.1%     -    0s
H    0     0                    3.968584e+08 4.1676e+08  5.02%     -    1s
H    0     0                    3.973072e+08 4.1671e+08  4.88%     -    1s
H    0     0                    4.032683e+08 4.1671e+08  3.33%     -    2s
     0     2 4.1671e+08    0   10 4.0327e+08 4.1671e+08  3.33%     -    3s
H   30    35                    4.062675e+08 4.1671e+08  2.57%  12.0    4s
   375   722 4.1662e+08   78   14 4.0627e+08 4.1671e+08  2.57%   8.7    5s
H 1152  1055                    4.062677e+08 4.1671e+08  2.57%   9.0    8s
H 1153  1055                    4.063570e+08 4.1671e+08  2.55%   9.0    8s
H 1156  1047                    4.066007e+08 4.1671e+08  2.49%   9.1    8s
  1157  1048 4.0715e+08  170   16 4.0660e+08 4.1671e+08  2.49%   9.1   10s
H 1158   996                    4.066241e+08 4.1671e+08  2.48%   9.1   11s
H 1158   946                    4.066241e+08 4.1671e+08  2.48%   9.1   11s
H 1160   900                    4.066252e+08 4.1671e+08  2.48%   9.0   13s
H 1161   858                    4.066318e+08 4.1671e+08  2.48%  11.9   13s
  1193   882 4.1671e+08   18   14 4.0663e+08 4.1671e+08  2.48%  12.4   15s
  2534  1635 4.1664e+08   88   12 4.0663e+08 4.1671e+08  2.48%  15.4   20s
  4837  3380 4.1584e+08  162   52 4.0663e+08 4.1671e+08  2.48%  12.5   25s
H 5472  3686                    4.085966e+08 4.1671e+08  1.98%  11.9   27s
H 6801  4866                    4.086744e+08 4.1671e+08  1.97%  10.9   29s
H 6852  4866                    4.087099e+08 4.1671e+08  1.96%  10.8   29s
H 6979  5218                    4.087577e+08 4.1671e+08  1.94%  10.9   30s
H 7088  5216                    4.088098e+08 4.1671e+08  1.93%  10.8   30s
H 8482  6182                    4.099933e+08 4.1671e+08  1.64%  11.1   31s
H10380  7550                    4.111249e+08 4.1671e+08  1.36%  10.7   33s
 10981  8106 4.1657e+08   65   30 4.1112e+08 4.1671e+08  1.36%  10.5   36s
H12368  8991                    4.111495e+08 4.1671e+08  1.35%  10.0   37s
*13335 10081             536    4.112528e+08 4.1671e+08  1.33%  10.0   39s
H15196 11755                    4.112668e+08 4.1671e+08  1.32%   9.7   40s
H15805 11720                    4.112982e+08 4.1671e+08  1.32%   9.6   40s
H17516 13530                    4.113500e+08 4.1671e+08  1.30%   9.3   42s
 19705 15153 4.1467e+08  315   30 4.1135e+08 4.1671e+08  1.30%   9.0   45s
 22202 17197 4.1440e+08  304   16 4.1135e+08 4.1671e+08  1.30%   8.6   50s
H22205 16339                    4.113855e+08 4.1671e+08  1.29%   8.6   53s
H22207 15525                    4.114100e+08 4.1671e+08  1.29%   8.8   54s
 22247 15556 4.1660e+08   33   29 4.1141e+08 4.1671e+08  1.29%   8.8   55s
H22556 14982                    4.114176e+08 4.1671e+08  1.29%   9.2   56s
 22632 15035 4.1539e+08   74   12 4.1142e+08 4.1671e+08  1.29%   9.3   60s

Explored 22636 nodes (213415 simplex iterations) in 60.02 seconds (62.71 work units)
Thread count was 8 (of 8 available processors)

Solution count 10: 4.11418e+08 4.1141e+08 4.11385e+08 ... 4.09993e+08

Time limit reached
Best objective 4.114175843897e+08, best bound 4.167066932402e+08, gap 1.2856%

Gurobi 9.5.2 (mac64[x86]) logging started Tue Mar 21 19:49:16 2023

Set parameter LogFile to value "logFiles/N-1L-45D/N-1L-6U-13F-18V-45D-a-basic.log"
Gurobi Optimizer version 9.5.2 build v9.5.2rc0 (mac64[x86])
Thread count: 4 physical cores, 8 logical processors, using up to 8 threads
Optimize a model with 10248 rows, 14126 columns and 93483 nonzeros
Model fingerprint: 0xf6a2373c
Variable types: 322 continuous, 13804 integer (13804 binary)
Coefficient statistics:
  Matrix range     [1e+00, 2e+05]
  Objective range  [4e+01, 2e+07]
  Bounds range     [1e+00, 1e+00]
  RHS range        [1e+00, 8e+05]
Presolve removed 8940 rows and 5585 columns
Presolve time: 0.19s
Presolved: 1308 rows, 8541 columns, 61217 nonzeros
Variable types: 322 continuous, 8219 integer (8219 binary)

Root relaxation: objective 4.167782e+08, 2725 iterations, 0.14 seconds (0.13 work units)

    Nodes    |    Current Node    |     Objective Bounds      |     Work
 Expl Unexpl |  Obj  Depth IntInf | Incumbent    BestBd   Gap | It/Node Time

     0     0 4.1678e+08    0   14          - 4.1678e+08      -     -    0s
     0     0 4.1676e+08    0   10          - 4.1676e+08      -     -    0s
     0     0 4.1676e+08    0   18          - 4.1676e+08      -     -    0s
     0     0 4.1676e+08    0   13          - 4.1676e+08      -     -    0s
     0     0 4.1676e+08    0   14          - 4.1676e+08      -     -    0s
     0     0 4.1676e+08    0    8          - 4.1676e+08      -     -    0s
     0     0 4.1676e+08    0    8          - 4.1676e+08      -     -    0s
     0     0 4.1676e+08    0    9          - 4.1676e+08      -     -    1s
H    0     0                    3.555381e+08 4.1676e+08  17.2%     -    1s
     0     0 4.1676e+08    0    9 3.5554e+08 4.1676e+08  17.2%     -    1s
H    0     0                    4.059214e+08 4.1676e+08  2.67%     -    1s
H    0     0                    4.060336e+08 4.1676e+08  2.64%     -    3s
     0     2 4.1676e+08    0    9 4.0603e+08 4.1676e+08  2.64%     -    3s
   357   486 4.1659e+08   80   13 4.0603e+08 4.1676e+08  2.64%   6.6    5s
H 1150  1108                    4.063253e+08 4.1676e+08  2.57%   6.4    7s
H 1169  1252                    4.065281e+08 4.1676e+08  2.52%   6.3    7s
H 1243  1251                    4.066140e+08 4.1676e+08  2.50%   6.4    7s
H 1719  1592                    4.068280e+08 4.1676e+08  2.44%   7.1    8s
  1722  1594 4.1675e+08   38   14 4.0683e+08 4.1676e+08  2.44%   7.1   11s
H 1723  1515                    4.068374e+08 4.1676e+08  2.44%   7.1   12s
H 1736  1448                    4.068376e+08 4.1671e+08  2.43%   9.6   16s
H 1736  1376                    4.068385e+08 4.1671e+08  2.43%   9.6   16s
  1752  1386 4.1587e+08   84   34 4.0684e+08 4.1670e+08  2.42%   9.5   20s
H 1789  1343                    4.068385e+08 4.1668e+08  2.42%  12.6   23s
  1985  1569 4.1649e+08   48   13 4.0684e+08 4.1668e+08  2.42%  13.6   25s
  2931  2756 4.1587e+08   94   18 4.0684e+08 4.1668e+08  2.42%  14.2   31s
  5476  3773 4.1365e+08   71   23 4.0684e+08 4.1667e+08  2.42%  12.5   35s
  8664  6789 4.1496e+08  184    8 4.0684e+08 4.1667e+08  2.42%  10.4   40s
 10918  9000 4.0938e+08  265   21 4.0684e+08 4.1667e+08  2.42%   9.7   45s
 14766 11621     cutoff  309      4.0684e+08 4.1667e+08  2.42%   9.8   50s
 17824 13697 4.1469e+08  137   23 4.0684e+08 4.1667e+08  2.42%   9.4   55s
H19328 13617                    4.104182e+08 4.1667e+08  1.52%   9.6   56s
H19493 13830                    4.105057e+08 4.1667e+08  1.50%   9.6   57s
H19919 13204                    4.114455e+08 4.1667e+08  1.27%   9.6   58s
 20114 13805 4.1562e+08  137   24 4.1145e+08 4.1667e+08  1.27%   9.6   60s

Cutting planes:
  Gomory: 3
  Lift-and-project: 7
  Cover: 24
  Implied bound: 5
  MIR: 20
  Flow cover: 32
  GUB cover: 3
  Zero half: 2
  RLT: 1
  Relax-and-lift: 1

Explored 20636 nodes (199254 simplex iterations) in 60.04 seconds (62.87 work units)
Thread count was 8 (of 8 available processors)

Solution count 10: 4.11446e+08 4.10506e+08 4.10418e+08 ... 4.06528e+08

Time limit reached
Best objective 4.114455009727e+08, best bound 4.166657605782e+08, gap 1.2688%

Gurobi 9.5.2 (mac64[x86]) logging started Tue Mar 21 20:03:56 2023

Set parameter LogFile to value "logFiles/N-1L-45D/N-1L-6U-13F-18V-45D-a-basic.log"
Gurobi Optimizer version 9.5.2 build v9.5.2rc0 (mac64[x86])
Thread count: 4 physical cores, 8 logical processors, using up to 8 threads
Optimize a model with 10254 rows, 14126 columns and 97179 nonzeros
Model fingerprint: 0x6959afaf
Variable types: 322 continuous, 13804 integer (13804 binary)
Coefficient statistics:
  Matrix range     [1e+00, 2e+05]
  Objective range  [4e+01, 2e+07]
  Bounds range     [1e+00, 1e+00]
  RHS range        [1e+00, 8e+05]
Presolve removed 9018 rows and 5585 columns
Presolve time: 0.19s
Presolved: 1236 rows, 8541 columns, 63741 nonzeros
Variable types: 322 continuous, 8219 integer (8219 binary)

Root relaxation: objective 4.167782e+08, 3228 iterations, 0.19 seconds (0.17 work units)

    Nodes    |    Current Node    |     Objective Bounds      |     Work
 Expl Unexpl |  Obj  Depth IntInf | Incumbent    BestBd   Gap | It/Node Time

     0     0 4.1678e+08    0   14          - 4.1678e+08      -     -    0s
H    0     0                    3.901807e+08 4.1678e+08  6.82%     -    0s
H    0     0                    4.046197e+08 4.1678e+08  3.00%     -    1s
     0     0 4.1676e+08    0   21 4.0462e+08 4.1676e+08  3.00%     -    1s
H    0     0                    4.055922e+08 4.1676e+08  2.75%     -    2s
     0     0 4.1676e+08    0   21 4.0559e+08 4.1676e+08  2.75%     -    2s
     0     0 4.1676e+08    0   29 4.0559e+08 4.1676e+08  2.75%     -    2s
     0     0 4.1676e+08    0   23 4.0559e+08 4.1676e+08  2.75%     -    3s
     0     0 4.1676e+08    0   19 4.0559e+08 4.1676e+08  2.75%     -    3s
     0     0 4.1676e+08    0   19 4.0559e+08 4.1676e+08  2.75%     -    3s
     0     2 4.1671e+08    0   14 4.0559e+08 4.1671e+08  2.74%     -    4s
   213   352 4.1637e+08   43   15 4.0559e+08 4.1641e+08  2.67%  13.8    5s
H  351   414                    4.067169e+08 4.1641e+08  2.38%  13.4    6s
H 1381  1263                    4.067349e+08 4.1641e+08  2.38%   9.7    9s
H 1383  1263                    4.067367e+08 4.1641e+08  2.38%   9.7    9s
  1394  1530 4.1607e+08   55   34 4.0674e+08 4.1641e+08  2.38%  10.0   10s
H 2147  1877                    4.067846e+08 4.1641e+08  2.37%  10.6   14s
  2150  1879 4.1261e+08  228    9 4.0678e+08 4.1637e+08  2.36%  10.6   15s
H 2609  2096                    4.067846e+08 4.1637e+08  2.36%  14.6   18s
  3172  2537 4.1577e+08  132   42 4.0678e+08 4.1637e+08  2.36%  15.0   20s
  3648  2747 4.1565e+08  171   22 4.0678e+08 4.1637e+08  2.36%  14.7   27s
  5218  3716 4.1637e+08  109   15 4.0678e+08 4.1637e+08  2.36%  12.8   30s
H 8500  5132                    4.114616e+08 4.1637e+08  1.19%  10.7   33s
 10512  7432 4.1629e+08  188   24 4.1146e+08 4.1637e+08  1.19%   9.9   37s
H11805  7806                    4.116806e+08 4.1637e+08  1.14%   9.5   39s
 12256  8315 4.1637e+08   59    9 4.1168e+08 4.1637e+08  1.14%   9.4   40s
 16856 12399 4.1203e+08  164   26 4.1168e+08 4.1637e+08  1.14%   9.4   45s
 20959 15056 4.1637e+08  112   19 4.1168e+08 4.1637e+08  1.14%   9.1   51s
H20960 14304                    4.118116e+08 4.1637e+08  1.11%   9.1   53s
H20962 13589                    4.120982e+08 4.1637e+08  1.04%   9.1   54s
 20964 13593 4.1637e+08   24   10 4.1210e+08 4.1637e+08  1.04%   9.3   55s
H21013 12947                    4.122646e+08 4.1637e+08  1.00%   9.3   56s
 21284 13131 4.1637e+08   58   24 4.1226e+08 4.1637e+08  1.00%   9.6   60s

Explored 21292 nodes (207295 simplex iterations) in 60.02 seconds (63.62 work units)
Thread count was 8 (of 8 available processors)

Solution count 10: 4.12265e+08 4.12098e+08 4.11812e+08 ... 4.06717e+08

Time limit reached
Best objective 4.122646261252e+08, best bound 4.163692100823e+08, gap 0.9956%
